
n_res = 6;
rcap = [110, 118, 901, 967, 846, 866];
rtype = [1, 1, 2, 2, 2, 2];
n_tasks = 50;
modes =  [{1, 2, 3, 4, 5, 6, 7, 8, 9}, {10, 11, 12, 13, 14, 15, 16, 17, 18}, {19, 20, 21, 22, 23, 24, 25, 26, 27}, {28, 29, 30, 31, 32, 33, 34, 35, 36}, {37, 38, 39, 40, 41, 42, 43, 44, 45}, {46, 47, 48, 49, 50, 51, 52, 53, 54}, {55, 56, 57, 58, 59, 60, 61, 62, 63}, {64, 65, 66, 67, 68, 69, 70, 71, 72}, {73, 74, 75, 76, 77, 78, 79, 80, 81}, {82, 83, 84, 85, 86, 87, 88, 89, 90}, {91, 92, 93, 94, 95, 96, 97, 98, 99}, {100, 101, 102, 103, 104, 105, 106, 107, 108}, {109, 110, 111, 112, 113, 114, 115, 116, 117}, {118, 119, 120, 121, 122, 123, 124, 125, 126}, {127, 128, 129, 130, 131, 132, 133, 134, 135}, {136, 137, 138, 139, 140, 141, 142, 143, 144}, {145, 146, 147, 148, 149, 150, 151, 152, 153}, {154, 155, 156, 157, 158, 159, 160, 161, 162}, {163, 164, 165, 166, 167, 168, 169, 170, 171}, {172, 173, 174, 175, 176, 177, 178, 179, 180}, {181, 182, 183, 184, 185, 186, 187, 188, 189}, {190, 191, 192, 193, 194, 195, 196, 197, 198}, {199, 200, 201, 202, 203, 204, 205, 206, 207}, {208, 209, 210, 211, 212, 213, 214, 215, 216}, {217, 218, 219, 220, 221, 222, 223, 224, 225}, {226, 227, 228, 229, 230, 231, 232, 233, 234}, {235, 236, 237, 238, 239, 240, 241, 242, 243}, {244, 245, 246, 247, 248, 249, 250, 251, 252}, {253, 254, 255, 256, 257, 258, 259, 260, 261}, {262, 263, 264, 265, 266, 267, 268, 269, 270}, {271, 272, 273, 274, 275, 276, 277, 278, 279}, {280, 281, 282, 283, 284, 285, 286, 287, 288}, {289, 290, 291, 292, 293, 294, 295, 296, 297}, {298, 299, 300, 301, 302, 303, 304, 305, 306}, {307, 308, 309, 310, 311, 312, 313, 314, 315}, {316, 317, 318, 319, 320, 321, 322, 323, 324}, {325, 326, 327, 328, 329, 330, 331, 332, 333}, {334, 335, 336, 337, 338, 339, 340, 341, 342}, {343, 344, 345, 346, 347, 348, 349, 350, 351}, {352, 353, 354, 355, 356, 357, 358, 359, 360}, {361, 362, 363, 364, 365, 366, 367, 368, 369}, {370, 371, 372, 373, 374, 375, 376, 377, 378}, {379, 380, 381, 382, 383, 384, 385, 386, 387}, {388, 389, 390, 391, 392, 393, 394, 395, 396}, {397, 398, 399, 400, 401, 402, 403, 404, 405}, {406, 407, 408, 409, 410, 411, 412, 413, 414}, {415, 416, 417, 418, 419, 420, 421, 422, 423}, {424, 425, 426, 427, 428, 429, 430, 431, 432}, {433, 434, 435, 436, 437, 438, 439, 440, 441}, {442, 443, 444, 445, 446, 447, 448, 449, 450}];
succ =  [{29, 28, 13, 8, 7, 5}, {28, 26, 23, 22, 21, 20, 19, 18, 17, 11, 10}, {33, 29, 27, 23, 21, 17, 10}, {33, 30, 29, 24, 21, 20, 15, 13}, {26, 24, 20, 18, 16, 15}, {35, 32, 31, 29, 27, 26, 25, 24, 23}, {38, 30, 26, 25, 21, 20, 18}, {38, 34, 33, 27, 25, 24, 18}, {35, 31, 30, 29, 27, 26, 24}, {35, 34, 31, 30, 24, 15}, {38, 35, 32, 29, 27, 24}, {39, 38, 37, 35, 31, 23}, {37, 36, 34, 32, 18}, {34, 31, 30, 27, 24}, {50, 43, 39, 38, 25}, {42, 39, 23}, {50, 49, 45, 43, 42, 37, 36, 35}, {45, 43, 39, 35, 31}, {42, 34, 27}, {45, 39, 36, 32}, {49, 45, 35, 32}, {43, 39, 36, 30}, {43, 34, 30}, {50, 42, 41, 39, 37}, {49, 45, 42, 37, 36}, {42, 41, 40, 39, 34}, {49, 45, 43, 40, 36}, {45, 40, 39, 36}, {45, 43, 42, 41, 40}, {49, 45, 41, 40}, {50, 49, 42, 41}, {50, 44, 43, 40}, {49, 41, 40}, {50, 49, 48, 47, 44}, {41, 40}, {48, 41}, {44, 40}, {49, 42}, {49, 47, 44}, {48, 47, 46}, {47, 44}, {48, 44}, {47, 46}, {46}, {46}, {}, {}, {}, {}, {}];
n_opt = 450;
dur = [6, 7, 13, 14, 16, 17, 19, 20, 21, 3, 13, 24, 25, 26, 27, 28, 29, 30, 1, 3, 4, 6, 15, 16, 17, 18, 19, 2, 3, 13, 15, 17, 19, 20, 22, 28, 1, 5, 8, 13, 14, 17, 23, 27, 30, 5, 6, 7, 15, 20, 21, 23, 24, 27, 1, 8, 13, 16, 20, 21, 24, 27, 28, 1, 3, 4, 5, 7, 13, 23, 27, 28, 1, 3, 7, 8, 11, 12, 19, 21, 25, 1, 6, 9, 14, 15, 16, 24, 26, 27, 1, 4, 5, 7, 10, 18, 25, 29, 30, 1, 9, 10, 11, 12, 14, 17, 19, 21, 2, 8, 9, 16, 17, 20, 23, 29, 30, 2, 4, 7, 8, 13, 14, 25, 26, 27, 1, 9, 10, 12, 13, 17, 21, 23, 25, 2, 3, 4, 9, 13, 16, 17, 21, 29, 2, 5, 8, 9, 20, 21, 24, 26, 30, 6, 10, 11, 14, 15, 16, 18, 26, 30, 5, 6, 8, 9, 11, 14, 17, 21, 25, 1, 7, 9, 10, 12, 16, 22, 27, 29, 4, 7, 8, 14, 16, 18, 20, 22, 27, 8, 9, 13, 16, 18, 25, 26, 29, 30, 1, 2, 6, 11, 12, 15, 18, 21, 25, 5, 6, 7, 9, 14, 15, 20, 26, 27, 4, 14, 17, 18, 19, 21, 22, 24, 28, 12, 13, 15, 18, 19, 22, 25, 28, 29, 3, 4, 12, 13, 16, 18, 22, 24, 27, 2, 3, 5, 8, 13, 17, 21, 23, 25, 6, 12, 14, 15, 16, 17, 21, 27, 30, 1, 2, 3, 7, 13, 14, 17, 23, 28, 1, 6, 9, 10, 13, 17, 21, 22, 23, 5, 12, 13, 14, 20, 24, 25, 26, 29, 1, 2, 4, 13, 22, 26, 27, 29, 30, 7, 8, 9, 11, 17, 20, 21, 27, 30, 1, 5, 6, 7, 8, 9, 10, 13, 18, 2, 15, 16, 17, 19, 23, 26, 27, 30, 1, 3, 6, 8, 11, 19, 20, 21, 23, 2, 3, 4, 7, 8, 11, 19, 25, 27, 3, 8, 10, 11, 13, 18, 23, 28, 29, 1, 2, 3, 8, 14, 22, 25, 26, 27, 1, 9, 14, 15, 21, 22, 23, 28, 30, 8, 9, 11, 13, 14, 15, 22, 23, 29, 2, 4, 12, 15, 18, 19, 22, 23, 29, 1, 2, 4, 5, 6, 7, 20, 23, 25, 6, 8, 10, 14, 15, 17, 21, 25, 26, 3, 4, 5, 6, 10, 12, 17, 20, 30, 3, 4, 5, 7, 15, 16, 18, 20, 27, 2, 7, 10, 13, 14, 15, 16, 17, 28, 1, 2, 4, 8, 13, 16, 19, 21, 23, 4, 10, 12, 15, 20, 23, 25, 26, 30];
rreq = [|25, 22, 21, 19, 17, 16, 15, 12, 11, 25, 24, 22, 19, 18, 16, 16, 14, 11, 24, 23, 23, 23, 23, 23, 23, 23, 23, 21, 17, 16, 14, 13, 11, 9, 5, 4, 17, 16, 15, 13, 12, 12, 11, 9, 9, 18, 17, 15, 14, 11, 10, 9, 6, 5, 10, 9, 9, 7, 7, 6, 5, 4, 3, 5, 5, 5, 5, 5, 4, 4, 4, 4, 16, 16, 16, 16, 15, 15, 15, 15, 15, 16, 14, 14, 13, 13, 12, 12, 10, 10, 5, 5, 5, 4, 3, 3, 3, 2, 2, 22, 21, 17, 16, 13, 10, 7, 6, 3, 15, 14, 14, 14, 13, 13, 13, 13, 13, 21, 21, 21, 21, 21, 21, 21, 21, 21, 23, 20, 19, 17, 15, 13, 11, 11, 8, 1, 1, 1, 1, 1, 1, 1, 1, 1, 23, 22, 19, 15, 15, 11, 9, 7, 5, 25, 23, 23, 23, 22, 22, 21, 21, 20, 19, 18, 17, 15, 14, 13, 12, 10, 9, 19, 17, 16, 16, 15, 12, 12, 11, 10, 25, 24, 23, 23, 22, 21, 21, 20, 20, 24, 22, 22, 21, 20, 18, 17, 17, 16, 12, 10, 8, 7, 6, 5, 4, 4, 2, 21, 21, 19, 16, 14, 12, 9, 8, 7, 12, 11, 10, 8, 7, 7, 6, 4, 4, 4, 3, 3, 3, 3, 3, 3, 3, 3, 19, 16, 14, 13, 11, 9, 8, 5, 3, 25, 20, 20, 16, 14, 12, 8, 6, 4, 11, 9, 9, 7, 7, 7, 5, 4, 4, 10, 9, 9, 7, 7, 6, 5, 4, 4, 15, 15, 15, 14, 13, 13, 13, 12, 12, 11, 10, 9, 9, 8, 7, 7, 6, 5, 8, 8, 8, 8, 8, 8, 8, 8, 8, 22, 22, 21, 21, 21, 20, 19, 19, 19, 9, 8, 7, 6, 6, 6, 5, 4, 4, 22, 21, 18, 18, 15, 14, 11, 8, 8, 19, 18, 18, 16, 16, 16, 14, 13, 13, 20, 18, 18, 16, 16, 15, 13, 12, 12, 16, 15, 15, 13, 13, 13, 11, 11, 10, 21, 21, 21, 21, 21, 21, 21, 21, 21, 19, 16, 15, 15, 12, 12, 10, 8, 6, 6, 6, 5, 5, 5, 4, 4, 3, 3, 10, 9, 9, 8, 8, 8, 7, 7, 7, 24, 22, 18, 17, 16, 14, 12, 9, 9, 10, 9, 8, 8, 7, 7, 6, 6, 5, 20, 20, 19, 18, 18, 17, 17, 16, 16, 20, 18, 17, 16, 13, 12, 11, 9, 8, 21, 20, 19, 19, 17, 16, 16, 14, 13, 15, 14, 13, 12, 11, 10, 10, 9, 7, 7, 7, 7, 7, 7, 7, 7, 7, 7
 |19, 19, 18, 18, 17, 16, 16, 16, 15, 15, 15, 15, 14, 14, 13, 12, 12, 12, 8, 8, 7, 7, 7, 6, 6, 5, 5, 21, 19, 19, 18, 18, 17, 17, 17, 16, 14, 13, 13, 12, 12, 12, 11, 11, 11, 14, 14, 13, 13, 13, 12, 12, 11, 11, 10, 9, 9, 9, 8, 8, 7, 6, 6, 14, 13, 11, 11, 9, 8, 6, 4, 4, 5, 5, 5, 4, 4, 4, 3, 3, 3, 10, 10, 10, 9, 9, 9, 9, 8, 8, 23, 22, 21, 20, 19, 18, 17, 15, 15, 1, 1, 1, 1, 1, 1, 1, 1, 1, 18, 16, 14, 12, 10, 8, 7, 5, 2, 24, 22, 22, 21, 20, 18, 17, 15, 15, 17, 15, 15, 14, 13, 11, 11, 9, 9, 19, 17, 17, 14, 14, 13, 11, 10, 8, 20, 19, 19, 18, 18, 17, 17, 16, 16, 4, 3, 3, 2, 2, 2, 1, 1, 1, 13, 12, 12, 12, 11, 10, 10, 9, 9, 24, 24, 23, 23, 23, 22, 21, 21, 21, 14, 13, 13, 12, 11, 9, 9, 8, 6, 16, 15, 15, 15, 15, 15, 15, 15, 15, 13, 12, 11, 11, 10, 8, 7, 6, 6, 15, 13, 13, 10, 9, 8, 8, 6, 4, 19, 18, 15, 12, 11, 10, 6, 6, 2, 8, 8, 8, 8, 8, 8, 8, 8, 8, 20, 19, 19, 18, 16, 14, 13, 12, 10, 23, 21, 20, 19, 18, 18, 17, 15, 15, 17, 16, 16, 16, 16, 15, 15, 15, 15, 16, 14, 12, 10, 8, 8, 5, 5, 2, 19, 19, 19, 18, 18, 18, 18, 17, 17, 16, 14, 14, 14, 12, 12, 11, 11, 10, 19, 17, 16, 16, 15, 14, 13, 13, 12, 19, 15, 14, 12, 12, 10, 8, 7, 6, 5, 4, 4, 3, 3, 2, 2, 1, 1, 23, 23, 23, 23, 23, 23, 23, 23, 23, 15, 14, 13, 13, 10, 10, 8, 7, 7, 23, 21, 21, 19, 19, 18, 17, 15, 15, 21, 20, 20, 18, 18, 17, 15, 15, 14, 20, 18, 17, 16, 15, 15, 13, 13, 12, 22, 20, 17, 16, 16, 14, 12, 10, 10, 15, 14, 14, 14, 14, 13, 13, 13, 13, 21, 21, 20, 19, 19, 19, 18, 18, 17, 26, 25, 25, 25, 24, 24, 24, 24, 24, 12, 10, 10, 9, 7, 7, 5, 5, 4, 4, 4, 4, 4, 4, 4, 4, 4, 4, 10, 8, 8, 6, 5, 5, 4, 2, 2, 25, 21, 21, 20, 17, 15, 14, 14, 12, 22, 21, 21, 21, 21, 21, 21, 21, 21, 20, 18, 16, 15, 14, 12, 12, 9, 8
 |29, 26, 22, 21, 18, 18, 15, 12, 11, 13, 10, 9, 8, 8, 7, 5, 4, 4, 10, 10, 10, 10, 10, 10, 10, 10, 10, 27, 26, 26, 26, 26, 25, 25, 25, 25, 17, 15, 14, 13, 13, 12, 12, 11, 10, 24, 20, 18, 18, 14, 14, 11, 8, 8, 17, 13, 13, 12, 10, 7, 5, 5, 2, 22, 19, 18, 14, 13, 10, 9, 8, 5, 30, 29, 27, 27, 25, 24, 23, 22, 22, 29, 27, 26, 24, 24, 22, 21, 19, 18, 13, 10, 10, 7, 7, 5, 5, 2, 1, 10, 10, 10, 10, 10, 10, 10, 10, 10, 18, 18, 16, 15, 14, 13, 13, 12, 11, 15, 13, 13, 11, 9, 8, 7, 4, 3, 22, 20, 18, 16, 13, 9, 7, 6, 4, 19, 17, 17, 16, 16, 16, 15, 15, 14, 28, 27, 26, 26, 24, 24, 23, 23, 22, 27, 24, 19, 18, 12, 11, 9, 6, 1, 27, 25, 21, 20, 16, 13, 9, 8, 4, 9, 9, 7, 6, 5, 5, 4, 2, 2, 18, 18, 17, 17, 17, 16, 16, 15, 15, 11, 11, 11, 11, 11, 10, 10, 10, 10, 28, 26, 24, 24, 21, 20, 20, 17, 17, 23, 22, 21, 21, 20, 20, 19, 19, 19, 15, 15, 13, 12, 12, 11, 9, 8, 8, 29, 28, 28, 28, 27, 27, 27, 26, 26, 21, 20, 20, 19, 18, 18, 17, 17, 17, 20, 20, 16, 14, 12, 11, 8, 7, 6, 25, 21, 21, 16, 15, 12, 9, 6, 4, 23, 23, 21, 20, 18, 18, 15, 14, 13, 19, 19, 19, 19, 18, 18, 18, 17, 17, 22, 21, 20, 19, 18, 18, 18, 16, 16, 21, 21, 21, 20, 20, 20, 19, 19, 19, 14, 13, 12, 11, 10, 10, 8, 7, 7, 12, 11, 10, 7, 6, 5, 5, 2, 2, 23, 23, 23, 23, 22, 22, 22, 21, 21, 25, 23, 21, 20, 19, 16, 16, 12, 12, 6, 6, 6, 6, 6, 6, 6, 6, 6, 6, 6, 5, 5, 4, 3, 3, 3, 2, 29, 28, 28, 28, 28, 27, 27, 27, 27, 27, 25, 23, 23, 21, 17, 16, 13, 13, 19, 18, 18, 18, 17, 17, 16, 16, 16, 27, 27, 27, 26, 26, 26, 26, 25, 25, 27, 25, 24, 23, 23, 22, 21, 19, 18, 12, 12, 12, 12, 11, 11, 11, 11, 11, 29, 27, 25, 24, 22, 21, 19, 18, 17, 16, 16, 13, 11, 10, 9, 5, 4, 2, 10, 10, 9, 9, 8, 7, 6, 6, 5, 24, 24, 23, 23, 22, 21, 21, 21, 20, 18, 17, 17, 15, 14, 13, 12, 11, 11
 |15, 14, 14, 14, 14, 14, 14, 14, 14, 25, 21, 20, 15, 14, 10, 8, 4, 2, 15, 14, 13, 12, 12, 11, 10, 9, 9, 19, 19, 17, 16, 16, 14, 14, 12, 12, 20, 19, 17, 14, 12, 11, 8, 6, 4, 25, 25, 25, 25, 24, 24, 23, 23, 23, 10, 9, 8, 7, 7, 7, 5, 4, 4, 15, 14, 13, 11, 11, 11, 10, 9, 8, 28, 28, 28, 27, 27, 27, 26, 26, 26, 22, 21, 21, 21, 21, 21, 21, 21, 21, 17, 16, 15, 14, 14, 12, 12, 10, 9, 27, 26, 25, 24, 24, 24, 23, 23, 22, 27, 25, 23, 23, 20, 19, 18, 18, 16, 22, 18, 18, 14, 13, 11, 7, 6, 1, 15, 14, 14, 14, 13, 13, 13, 13, 13, 21, 18, 17, 17, 15, 13, 11, 11, 8, 12, 12, 11, 10, 10, 9, 9, 9, 8, 19, 17, 14, 13, 12, 8, 5, 4, 3, 16, 15, 13, 12, 9, 8, 7, 5, 4, 25, 22, 19, 17, 16, 15, 13, 9, 8, 18, 18, 14, 14, 10, 8, 6, 6, 3, 24, 23, 20, 19, 17, 14, 12, 10, 8, 25, 25, 24, 22, 21, 20, 19, 18, 18, 27, 26, 26, 26, 26, 26, 26, 26, 26, 13, 10, 9, 8, 7, 5, 4, 4, 3, 28, 26, 25, 22, 21, 19, 17, 16, 14, 17, 15, 14, 12, 12, 10, 9, 7, 5, 22, 21, 18, 17, 17, 14, 14, 12, 11, 24, 22, 21, 19, 16, 16, 13, 11, 9, 28, 25, 22, 21, 16, 15, 10, 10, 7, 29, 24, 21, 16, 13, 11, 7, 5, 1, 23, 23, 22, 20, 20, 19, 17, 17, 15, 28, 27, 26, 24, 23, 23, 22, 21, 20, 27, 24, 21, 19, 15, 13, 12, 10, 5, 25, 25, 25, 25, 25, 25, 25, 25, 25, 24, 22, 19, 19, 16, 15, 14, 12, 12, 26, 23, 22, 19, 17, 14, 12, 12, 9, 27, 24, 21, 19, 17, 14, 11, 8, 8, 28, 26, 25, 24, 22, 20, 16, 16, 13, 30, 29, 28, 27, 27, 26, 26, 24, 24, 25, 25, 24, 24, 23, 23, 22, 21, 21, 18, 16, 14, 14, 12, 12, 10, 10, 8, 24, 22, 22, 20, 17, 17, 15, 14, 12, 16, 16, 16, 16, 16, 16, 16, 16, 16, 24, 23, 23, 23, 23, 23, 23, 23, 23, 25, 24, 22, 21, 20, 19, 19, 18, 16, 11, 11, 10, 8, 8, 7, 5, 5, 4, 13, 11, 11, 10, 10, 9, 8, 7, 7, 27, 25, 21, 17, 15, 14, 10, 8, 5, 28, 26, 24, 21, 18, 15, 13, 11, 9
 |17, 16, 12, 11, 8, 8, 6, 3, 1, 19, 17, 17, 15, 14, 12, 10, 10, 8, 28, 25, 21, 19, 15, 14, 10, 7, 5, 6, 6, 6, 6, 6, 6, 6, 6, 6, 27, 27, 23, 23, 19, 19, 16, 15, 13, 11, 10, 10, 9, 8, 8, 8, 7, 7, 8, 7, 6, 5, 5, 4, 4, 2, 2, 21, 20, 19, 19, 18, 16, 16, 15, 13, 26, 26, 24, 23, 20, 20, 17, 17, 15, 29, 28, 28, 28, 27, 26, 26, 26, 25, 3, 3, 3, 3, 3, 3, 3, 3, 3, 23, 20, 19, 17, 15, 12, 10, 9, 7, 29, 28, 26, 25, 24, 24, 22, 21, 21, 10, 10, 10, 10, 10, 9, 9, 9, 9, 15, 13, 12, 11, 8, 7, 7, 5, 3, 22, 21, 19, 19, 17, 16, 16, 15, 13, 23, 22, 22, 22, 21, 21, 20, 20, 19, 29, 27, 24, 22, 22, 19, 17, 15, 14, 4, 3, 3, 3, 2, 2, 2, 2, 2, 13, 13, 11, 9, 7, 5, 5, 4, 1, 25, 24, 22, 21, 20, 19, 19, 17, 17, 24, 23, 22, 20, 20, 18, 16, 16, 14, 25, 24, 24, 24, 24, 24, 24, 24, 24, 29, 26, 26, 23, 23, 21, 21, 18, 18, 28, 27, 27, 26, 26, 25, 25, 25, 24, 28, 26, 26, 23, 21, 21, 18, 17, 16, 22, 21, 20, 18, 18, 18, 16, 15, 15, 20, 18, 16, 14, 14, 12, 10, 10, 7, 23, 21, 19, 16, 13, 13, 9, 8, 5, 24, 24, 22, 22, 21, 21, 19, 18, 18, 15, 15, 15, 14, 14, 13, 12, 12, 12, 30, 27, 21, 20, 16, 13, 9, 9, 5, 28, 26, 25, 25, 24, 23, 21, 21, 20, 18, 17, 17, 17, 17, 16, 16, 16, 16, 17, 15, 15, 12, 12, 11, 8, 8, 6, 20, 18, 15, 13, 12, 12, 10, 9, 6, 14, 14, 13, 12, 12, 12, 11, 10, 10, 11, 10, 9, 8, 7, 7, 6, 5, 5, 27, 27, 27, 27, 27, 27, 27, 27, 27, 16, 15, 13, 13, 10, 10, 9, 6, 6, 17, 15, 14, 12, 10, 9, 8, 6, 4, 25, 23, 23, 23, 22, 21, 21, 20, 19, 25, 23, 20, 19, 17, 16, 15, 12, 10, 9, 9, 8, 8, 7, 7, 7, 6, 6, 18, 18, 16, 15, 13, 13, 11, 9, 8, 1, 1, 1, 1, 1, 1, 1, 1, 1, 6, 6, 6, 6, 6, 6, 6, 6, 6, 9, 8, 8, 7, 7, 6, 6, 5, 5, 20, 19, 18, 18, 17, 16, 16, 16, 15, 12, 12, 11, 9, 9, 8, 7, 6, 5
 |8, 7, 6, 5, 5, 4, 4, 4, 3, 8, 7, 7, 6, 4, 4, 2, 2, 1, 12, 12, 12, 11, 11, 11, 11, 10, 10, 20, 20, 19, 17, 16, 15, 13, 11, 11, 10, 10, 9, 8, 5, 5, 4, 2, 2, 24, 22, 22, 22, 21, 20, 20, 20, 19, 19, 18, 18, 15, 14, 12, 11, 10, 8, 17, 15, 13, 11, 10, 8, 8, 7, 4, 23, 20, 20, 17, 16, 16, 15, 12, 11, 15, 13, 11, 11, 8, 8, 7, 5, 4, 26, 26, 24, 22, 20, 18, 16, 15, 12, 26, 21, 18, 16, 13, 10, 8, 5, 2, 17, 16, 14, 14, 12, 12, 10, 10, 9, 24, 22, 21, 17, 17, 14, 14, 10, 10, 20, 19, 18, 17, 16, 14, 14, 13, 12, 22, 18, 17, 15, 12, 8, 8, 4, 3, 20, 18, 18, 18, 17, 16, 16, 15, 14, 27, 26, 25, 24, 24, 21, 20, 19, 18, 14, 13, 12, 11, 11, 10, 10, 8, 8, 1, 1, 1, 1, 1, 1, 1, 1, 1, 19, 19, 18, 17, 17, 16, 16, 16, 15, 29, 26, 23, 19, 18, 15, 9, 6, 5, 16, 14, 13, 12, 9, 8, 6, 5, 2, 10, 8, 8, 8, 7, 7, 6, 6, 5, 25, 24, 24, 24, 24, 24, 24, 24, 24, 21, 21, 20, 18, 18, 16, 16, 14, 14, 27, 24, 21, 18, 17, 13, 10, 9, 5, 11, 11, 11, 11, 10, 10, 9, 9, 9, 25, 25, 24, 22, 21, 21, 20, 18, 18, 14, 13, 12, 12, 11, 11, 10, 10, 9, 18, 16, 14, 11, 10, 9, 8, 7, 5, 25, 22, 20, 18, 15, 13, 13, 11, 9, 27, 25, 20, 19, 14, 12, 7, 7, 4, 29, 24, 20, 19, 15, 11, 10, 7, 4, 30, 26, 23, 23, 19, 18, 13, 12, 11, 15, 15, 15, 15, 14, 14, 14, 14, 14, 13, 13, 13, 13, 12, 12, 12, 12, 12, 22, 22, 20, 19, 19, 19, 17, 17, 16, 25, 23, 22, 22, 19, 17, 16, 15, 14, 20, 19, 18, 18, 18, 17, 17, 16, 16, 17, 16, 16, 16, 16, 15, 15, 15, 15, 25, 24, 24, 21, 20, 19, 19, 17, 16, 25, 23, 22, 21, 21, 19, 18, 17, 17, 19, 18, 17, 16, 14, 14, 12, 11, 10, 24, 23, 19, 18, 16, 13, 12, 8, 7, 25, 24, 23, 22, 20, 18, 16, 16, 15, 13, 10, 9, 9, 7, 5, 4, 3, 2, 21, 21, 19, 17, 17, 14, 14, 11, 10, 22, 20, 20, 19, 17, 16, 16, 14, 14, 23, 23, 23, 23, 23, 23, 23, 23, 23|];